(set-logic QF_FP)
(set-option :produce-models true)
(set-info :source |Random FP created by PyMPF|)
(set-info :category random)
(set-info :status sat)
(declare-const x Float32)
(assert (= x (fp #b1 #b00000000 #b01001010111010100101011)))
(declare-const y Float32)
(assert (= y (_ +oo 8 24)))
(declare-const z Float32)
(assert (= z ((_ to_fp 8 24) #x7F800000)))
(declare-const result Float32)
(assert (= result (fp.fma RNE x y z)))
(assert (= result (_ NaN 8 24)))
(check-sat)
(exit)
